p wcnf 198 396 397 
1 -167 29 0 
1 24 -132 0 
1 -163 -45 0 
1 194 -184 0 
1 -148 -19 0 
1 92 -18 0 
1 -103 -162 0 
1 -191 143 0 
1 -179 4 0 
1 -170 190 0 
1 88 124 0 
1 -192 83 0 
1 108 -104 0 
1 -134 -163 0 
1 -76 184 0 
1 44 -161 0 
1 -5 -62 0 
1 -132 82 0 
1 -167 126 0 
1 177 78 0 
1 177 -41 0 
1 175 -12 0 
1 -148 -36 0 
1 -156 160 0 
1 110 130 0 
1 -192 -125 0 
1 87 -120 0 
1 62 -33 0 
1 34 9 0 
1 97 104 0 
1 152 182 0 
1 137 -82 0 
1 2 -3 0 
1 71 183 0 
1 -163 -65 0 
1 -145 50 0 
1 -31 36 0 
1 -83 -133 0 
1 -24 65 0 
1 26 -57 0 
1 -27 198 0 
1 -187 121 0 
1 -20 122 0 
1 97 -7 0 
1 -97 14 0 
1 150 -9 0 
1 61 -195 0 
1 139 38 0 
1 114 -35 0 
1 57 -92 0 
1 85 -195 0 
1 192 96 0 
1 -61 -97 0 
1 17 117 0 
1 65 -44 0 
1 118 132 0 
1 -129 3 0 
1 -108 -195 0 
1 -120 -128 0 
1 83 140 0 
1 68 71 0 
1 76 111 0 
1 20 -188 0 
1 161 -14 0 
1 -3 175 0 
1 49 88 0 
1 17 137 0 
1 -24 -97 0 
1 102 57 0 
1 31 -6 0 
1 181 -40 0 
1 138 -6 0 
1 96 -7 0 
1 171 27 0 
1 -115 -8 0 
1 -111 -179 0 
1 -57 -149 0 
1 87 125 0 
1 -57 -198 0 
1 -34 -25 0 
1 -132 175 0 
1 139 -96 0 
1 61 140 0 
1 -159 -158 0 
1 -44 -85 0 
1 -131 103 0 
1 29 88 0 
1 -155 -126 0 
1 176 -50 0 
1 -19 30 0 
1 83 50 0 
1 90 -81 0 
1 -25 3 0 
1 -120 99 0 
1 80 -195 0 
1 20 -76 0 
1 193 -70 0 
1 69 188 0 
1 -109 53 0 
1 72 189 0 
1 125 -87 0 
1 -159 -183 0 
1 197 122 0 
1 -53 182 0 
1 17 -102 0 
1 185 23 0 
1 -41 123 0 
1 41 -181 0 
1 130 136 0 
1 183 -25 0 
1 166 36 0 
1 -10 19 0 
1 134 -185 0 
1 104 -82 0 
1 -183 169 0 
1 -58 171 0 
1 -41 22 0 
1 -7 112 0 
1 47 147 0 
1 141 -22 0 
1 -61 18 0 
1 -150 -161 0 
1 110 -65 0 
1 -111 -24 0 
1 10 172 0 
1 -151 -34 0 
1 110 36 0 
1 -10 62 0 
1 -132 -107 0 
1 80 -175 0 
1 -79 -68 0 
1 -105 33 0 
1 43 -124 0 
1 -189 -22 0 
1 193 72 0 
1 -47 144 0 
1 77 113 0 
1 61 -15 0 
1 -160 -7 0 
1 -28 -83 0 
1 -87 67 0 
1 155 -30 0 
1 -6 185 0 
1 -88 -138 0 
1 -166 65 0 
1 -124 -126 0 
1 177 -98 0 
1 -78 64 0 
1 -177 33 0 
1 184 100 0 
1 -133 -196 0 
1 -129 181 0 
1 117 1 0 
1 -49 -156 0 
1 189 -105 0 
1 15 46 0 
1 -197 175 0 
1 -92 -191 0 
1 158 -59 0 
1 -172 186 0 
1 149 117 0 
1 128 179 0 
1 173 53 0 
1 62 -86 0 
1 4 -148 0 
1 -93 -162 0 
1 -98 -40 0 
1 170 52 0 
1 -37 -1 0 
1 -52 3 0 
1 146 -172 0 
1 80 171 0 
1 138 172 0 
1 -62 -114 0 
1 -169 18 0 
1 35 40 0 
1 -14 172 0 
1 3 144 0 
1 135 16 0 
1 54 -112 0 
1 -44 62 0 
1 -45 -97 0 
1 -97 181 0 
1 31 -85 0 
1 111 25 0 
1 135 -20 0 
1 -53 115 0 
1 -85 8 0 
1 70 -39 0 
1 -106 187 0 
1 164 76 0 
1 135 -171 0 
1 181 128 0 
1 9 110 0 
1 10 -136 0 
1 76 -186 0 
1 -183 -167 0 
1 189 154 0 
1 -14 91 0 
1 81 162 0 
1 198 172 0 
1 -192 -38 0 
1 195 -174 0 
1 -141 139 0 
1 58 54 0 
1 44 149 0 
1 -120 110 0 
1 11 155 0 
1 -38 164 0 
1 -116 -148 0 
1 -174 167 0 
1 127 -165 0 
1 160 -198 0 
1 -102 75 0 
1 61 -91 0 
1 101 171 0 
1 129 -17 0 
1 100 152 0 
1 190 -88 0 
1 79 11 0 
1 -153 116 0 
1 31 -189 0 
1 -10 -18 0 
1 122 8 0 
1 -9 -142 0 
1 -7 -38 0 
1 56 57 0 
1 8 146 0 
1 -25 -108 0 
1 -56 9 0 
1 41 -182 0 
1 -198 -176 0 
1 152 128 0 
1 -55 -11 0 
1 -148 72 0 
1 175 187 0 
1 110 -99 0 
1 128 102 0 
1 19 101 0 
1 -131 125 0 
1 -189 -150 0 
1 198 193 0 
1 -14 -4 0 
1 -144 -192 0 
1 25 -80 0 
1 -148 159 0 
1 -109 185 0 
1 -13 77 0 
1 77 71 0 
1 52 133 0 
1 -9 125 0 
1 -181 -27 0 
1 -111 116 0 
1 78 171 0 
1 -48 -140 0 
1 -130 69 0 
1 72 76 0 
1 -79 -85 0 
1 -103 -73 0 
1 -8 -72 0 
1 -135 -175 0 
1 -155 154 0 
1 -107 -99 0 
1 177 -160 0 
1 -172 83 0 
1 44 -93 0 
1 -24 143 0 
1 -64 -91 0 
1 28 13 0 
1 -44 -170 0 
1 110 -165 0 
1 -104 -157 0 
1 39 -26 0 
1 179 47 0 
1 -113 16 0 
1 -97 -198 0 
1 57 155 0 
1 38 19 0 
1 -197 -112 0 
1 -135 5 0 
1 190 -121 0 
1 -21 126 0 
1 35 -39 0 
1 189 -154 0 
1 74 -194 0 
1 35 198 0 
1 -197 -43 0 
1 103 -12 0 
1 -86 -101 0 
1 -168 182 0 
1 -89 138 0 
1 173 -110 0 
1 161 140 0 
1 144 -193 0 
1 73 -55 0 
1 45 126 0 
1 -67 42 0 
1 -161 -17 0 
1 62 130 0 
1 -78 -146 0 
1 176 20 0 
1 -188 31 0 
1 167 -176 0 
1 -143 27 0 
1 -33 -52 0 
1 -106 -91 0 
1 -195 186 0 
1 6 72 0 
1 -34 109 0 
1 -64 105 0 
1 103 -5 0 
1 91 127 0 
1 -167 -132 0 
1 -37 22 0 
1 194 69 0 
1 188 145 0 
1 -61 74 0 
1 -82 96 0 
1 23 -177 0 
1 -164 -93 0 
1 -110 -129 0 
1 165 -85 0 
1 48 142 0 
1 164 58 0 
1 7 -90 0 
1 110 -147 0 
1 -164 150 0 
1 -9 145 0 
1 7 -66 0 
1 -61 111 0 
1 -157 -164 0 
1 51 -157 0 
1 -37 -168 0 
1 21 -63 0 
1 -80 -150 0 
1 135 -124 0 
1 -180 -26 0 
1 -3 -27 0 
1 -122 31 0 
1 138 -132 0 
1 144 -109 0 
1 -43 -144 0 
1 -8 32 0 
1 -34 29 0 
1 -45 -145 0 
1 115 -41 0 
1 27 -121 0 
1 -131 53 0 
1 78 136 0 
1 168 103 0 
1 12 -9 0 
1 -136 35 0 
1 168 -31 0 
1 -146 21 0 
1 -11 -156 0 
1 -145 30 0 
1 -141 -115 0 
1 -67 42 0 
1 165 -14 0 
1 -172 -126 0 
1 75 133 0 
1 109 156 0 
1 135 -174 0 
1 35 168 0 
1 129 -29 0 
1 -29 -11 0 
1 135 -194 0 
1 90 -167 0 
1 61 -3 0 
1 138 159 0 
1 -172 -160 0 
1 -88 -118 0 
1 189 -12 0 
1 -22 -140 0 
1 -90 -142 0 
1 50 80 0 
1 -3 -140 0 
1 -127 -154 0 
1 -70 -136 0 
1 2 91 0 
1 181 46 0 
1 -174 69 0 
1 -64 54 0 
1 149 93 0 
1 147 -106 0 
1 -74 -166 0 
1 -154 -107 0 
1 51 -154 0 
1 -147 101 0 
1 -92 157 0 
1 21 11 0 
1 66 195 0 
1 -25 -108 0 
1 64 -36 0 
1 32 -88 0 
1 -71 115 0 
